
Clique cuts applied:  1
Cover cuts applied:  5
Implied bound cuts applied:  6
Mixed integer rounding cuts applied:  1
Zero-half cuts applied:  7
Multi commodity flow cuts applied:  2

Root node processing (before b&c):
  Real time             =    0.03 sec. (21.44 ticks)
Parallel b&c, 4 threads:
  Real time             =    0.00 sec. (0.00 ticks)
  Sync time (average)   =    0.00 sec.
  Wait time (average)   =    0.00 sec.
                          ------------
Total (root+branch&cut) =    0.03 sec. (21.44 ticks)
Version identifier: 12.10.0.0 | 2019-11-26 | 843d4de
CPXPARAM_MIP_Interval                            10
CPXPARAM_MIP_Tolerances_AbsMIPGap                0.98999999999999999
Tried aggregator 2 times.
MIP Presolve eliminated 1789 rows and 844 columns.
MIP Presolve added 4 rows and 0 columns.
MIP Presolve modified 94 coefficients.
Aggregator did 11 substitutions.
Reduced MIP has 842 rows, 134 columns, and 1874 nonzeros.
Reduced MIP has 105 binaries, 29 generals, 0 SOSs, and 0 indicators.
Presolve time = 0.00 sec. (3.40 ticks)
Found incumbent of value 4.000000 after 0.01 sec. (5.54 ticks)
Probing fixed 0 vars, tightened 6 bounds.
Probing time = 0.00 sec. (0.38 ticks)
Cover probing fixed 0 vars, tightened 18 bounds.
Tried aggregator 1 time.
Detecting symmetries...
MIP Presolve eliminated 594 rows and 0 columns.
MIP Presolve modified 21 coefficients.
Reduced MIP has 248 rows, 134 columns, and 686 nonzeros.
Reduced MIP has 105 binaries, 29 generals, 0 SOSs, and 0 indicators.
Presolve time = 0.00 sec. (0.79 ticks)
Probing fixed 0 vars, tightened 7 bounds.
Probing time = 0.00 sec. (0.15 ticks)
Cover probing fixed 0 vars, tightened 14 bounds.
Clique table members: 178.
MIP emphasis: balance optimality and feasibility.
MIP search method: dynamic search.
Parallel mode: deterministic, using up to 4 threads.
Root relaxation solution time = 0.00 sec. (0.61 ticks)

        Nodes                                         Cuts/
   Node  Left     Objective  IInf  Best Integer    Best Bound    ItCnt     Gap

*     0+    0                            4.0000       30.0000           650.00%
*     0+    0                           15.0000       30.0000           100.00%
      0     0       19.3333    45       15.0000       19.3333       99   28.89%
      0     0       19.3333    45       15.0000       Cuts: 3      128   28.89%
      0     0       19.3333    45       15.0000      Cuts: 69      205   28.89%
      0     0       19.3333    45       15.0000      Cuts: 16      240   28.89%
*     0+    0                           16.0000       19.3333            20.83%
      0     0       19.3023    45       16.0000      Cuts: 14      280   20.64%
      0     0       19.2857    45       16.0000      Cuts: 60      322   20.54%
Detecting symmetries...
      0     0       19.2857    45       16.0000      Cuts: 31      345   20.54%
      0     0       19.2667    45       16.0000   ZeroHalf: 8      362   20.42%
      0     0       19.1900    45       16.0000      Cuts: 25      398   19.94%
      0     0       18.9474    45       16.0000      Cuts: 34      433   18.42%
      0     0       18.6667    45       16.0000      Cuts: 29      456   16.67%
      0     0       18.6667    45       16.0000      Cuts: 24      484   16.67%
*     0+    0                           18.0000       18.6667             3.70%
      0     0        cutoff             18.0000       18.0000      484    0.00%
Elapsed time = 0.05 sec. (35.27 ticks, tree = 0.01 MB, solutions = 4)
the number of Nodes = 0
